NAME: dataset10
TYPE: TSP
COMMENT: 10 random locations
DIMENSION: 10
EDGE_WEIGHT_TYPE: EUC_2D
NODE_COORD_SECTION
1 337.9942140791 57.8288100209
2 107.4794315632 357.4734811958
3 294.9855351977 68.2345754429
4 248.4088717454 91.1075181892
5 147.4054529464 280.2748585287
6 116.3051608078 147.1816283925
7 2.648244099 134.2764753436
8 198.2602644398 134.8643006263
9 219.1370911621 173.1384829506
10 99.7008227375 171.0990502035
EOF
